g3 2 1 0	# problem inst_sans_ref
 26 74 1 0 18	# vars, constraints, objectives, ranges, eqns
 18 1	# nonlinear constraints, objectives
 0 0	# network constraints: nonlinear, linear
 8 8 8	# nonlinear vars in constraints, objectives, both
 0 0 0 1	# linear network variables; functions; arith, flags
 0 0 0 0 0	# discrete variables: binary, integer, nonlinear (b,c,o)
 198 15	# nonzeros in Jacobian, gradients
 0 0	# max name lengths: constraints, variables
 0 0 0 0 0	# common exprs: b,c,o,c1,o1
b
0 0 1
0 0 1
0 0 1
0 0 1
0 0 1
0 0 1
0 0 1
0 0 1
0 0 1
0 0 1
0 0 1
0 0 1
0 0 1
0 0 1
0 0 1
0 0 1
0 0 1
0 0 1
0 0 1
0 0 1
0 0 1
0 0 1
0 0 1
0 0 1
0 0 1
0 0 1
r
4 0
4 0
4 0
4 0
4 0
4 0
4 0
4 0
4 0
4 0
4 0
4 0
4 0
4 0
4 0
4 0
4 0
4 0
1 3.76
1 4.92
1 0
1 0
1 0
1 0
1 0
1 0
1 0
1 0
1 0
1 0
1 0
1 0
1 0
1 0
1 0
1 0
1 0
1 0
1 0
1 0
1 0
1 0
1 0
1 0
1 0
1 0
1 0
1 0
1 0
2 -1
2 -1
2 -1
2 -1
2 -1
2 -1
2 -1
2 -1
2 -1
2 -1
2 -1
2 -1
2 -1
2 -1
2 -1
2 -1
2 -1
2 -1
2 0
2 0
2 0
2 0
2 0
2 0
2 0
C0
o16
o2
v0
v0
C1
o16
o2
v0
v5
C2
o16
o2
v0
v6
C3
o16
o2
v0
v7
C4
o16
o2
v1
v1
C5
o16
o2
v1
v5
C6
o16
o2
v1
v6
C7
o16
o2
v2
v2
C8
o16
o2
v2
v4
C9
o16
o2
v2
v6
C10
o16
o2
v2
v7
C11
o16
o2
v3
v4
C12
o16
o2
v3
v6
C13
o16
o2
v3
v7
C14
o16
o2
v4
v4
C15
o16
o2
v5
v5
C16
o16
o2
v6
v6
C17
o16
o2
v7
v7
C18
n0
C19
n0
C20
n0
C21
n0
C22
n0
C23
n0
C24
n0
C25
n0
C26
n0
C27
n0
C28
n0
C29
n0
C30
n0
C31
n0
C32
n0
C33
n0
C34
n0
C35
n0
C36
n0
C37
n0
C38
n0
C39
n0
C40
n0
C41
n0
C42
n0
C43
n0
C44
n0
C45
n0
C46
n0
C47
n0
C48
n0
C49
n0
C50
n0
C51
n0
C52
n0
C53
n0
C54
n0
C55
n0
C56
n0
C57
n0
C58
n0
C59
n0
C60
n0
C61
n0
C62
n0
C63
n0
C64
n0
C65
n0
C66
n0
C67
n0
C68
n0
C69
n0
C70
n0
C71
n0
C72
n0
C73
n0
O0 0
o54
24
o2
o2
n1.662136
v0
v0
o2
o2
n0.24
v0
v4
o2
o2
n-0.925
v0
v6
o2
o2
n-0.255
v0
v7
o2
o2
n1.185338
v1
v1
o2
o2
n-0.495
v1
v4
o2
o2
n-0.21
v1
v5
o2
o2
n-0.235
v1
v6
o2
o2
n-0.1
v1
v7
o2
o2
n1.161461
v2
v2
o2
o2
n0.855
v2
v6
o2
o2
n1e-06
v3
v3
o2
o2
n0.24
v4
v0
o2
o2
n-0.495
v4
v1
o2
o2
n0.720295
v4
v4
o2
o2
n-0.21
v5
v1
o2
o2
n0.594023
v5
v5
o2
o2
n-0.925
v6
v0
o2
o2
n-0.235
v6
v1
o2
o2
n0.855
v6
v2
o2
o2
n1.736256
v6
v6
o2
o2
n-0.255
v7
v0
o2
o2
n-0.1
v7
v1
o2
o2
n0.601904
v7
v7
k25
15
27
42
53
65
77
95
110
114
119
124
130
134
140
145
149
155
161
167
172
177
182
186
190
194
J0 2
0 0
8 1
J1 3
0 0
5 0
9 1
J2 3
0 0
6 0
10 1
J3 3
0 0
7 0
11 1
J4 2
1 0
12 1
J5 3
1 0
5 0
13 1
J6 3
1 0
6 0
14 1
J7 2
2 0
15 1
J8 3
2 0
4 0
16 1
J9 3
2 0
6 0
17 1
J10 3
2 0
7 0
18 1
J11 3
3 0
4 0
19 1
J12 3
3 0
6 0
20 1
J13 3
3 0
7 0
21 1
J14 2
4 0
22 1
J15 2
5 0
23 1
J16 2
6 0
24 1
J17 2
7 0
25 1
J18 16
0 0.21
1 -0.75
2 0.93
3 0.88
4 0.35
5 0.67
6 0.74
7 0.92
9 -1.04
11 -0.93
13 -1.11
14 -1.52
16 -1.6
17 1.26
18 -1.62
19 1.43
J19 16
0 0.26
1 0.62
2 0.17
3 -0.91
4 -0.88
5 0.82
6 -0.94
7 -0.89
10 -0.39
11 0.69
13 -0.75
16 0.31
17 0.56
18 1.84
20 0.38
21 -0.67
J20 2
0 -1
8 1
J21 2
0 -1
9 1
J22 2
0 -1
10 1
J23 2
0 -1
11 1
J24 2
1 -1
12 1
J25 2
1 -1
13 1
J26 2
1 -1
14 1
J27 2
2 -1
15 1
J28 2
2 -1
16 1
J29 2
2 -1
17 1
J30 2
2 -1
18 1
J31 2
3 -1
19 1
J32 2
3 -1
20 1
J33 2
3 -1
21 1
J34 2
4 -1
22 1
J35 2
5 -1
23 1
J36 2
6 -1
24 1
J37 2
7 -1
25 1
J38 2
5 -1
9 1
J39 2
6 -1
10 1
J40 2
7 -1
11 1
J41 2
5 -1
13 1
J42 2
6 -1
14 1
J43 2
4 -1
16 1
J44 2
6 -1
17 1
J45 2
7 -1
18 1
J46 2
4 -1
19 1
J47 2
6 -1
20 1
J48 2
7 -1
21 1
J49 2
0 -2
8 1
J50 3
0 -1
5 -1
9 1
J51 3
0 -1
6 -1
10 1
J52 3
0 -1
7 -1
11 1
J53 2
1 -2
12 1
J54 3
1 -1
5 -1
13 1
J55 3
1 -1
6 -1
14 1
J56 2
2 -2
15 1
J57 3
2 -1
4 -1
16 1
J58 3
2 -1
6 -1
17 1
J59 3
2 -1
7 -1
18 1
J60 3
3 -1
4 -1
19 1
J61 3
3 -1
6 -1
20 1
J62 3
3 -1
7 -1
21 1
J63 2
4 -2
22 1
J64 2
5 -2
23 1
J65 2
6 -2
24 1
J66 2
7 -2
25 1
J67 2
0 -1
8 1
J68 2
1 -1
12 1
J69 2
2 -1
15 1
J70 2
4 -1
22 1
J71 2
5 -1
23 1
J72 2
6 -1
24 1
J73 2
7 -1
25 1
G0 15
0 -0.9
1 0.01
2 -0.15
3 0
4 -0.61
5 -0.72
6 0.07
7 -0.33
8 -1.662136
12 -1.185338
15 -1.161461
22 -0.720295
23 -0.594023
24 -1.736256
25 -0.601904
